c ---- [ banner ] ------------------------------------------------------------
c
c Kissat SAT Solver
c 
c Copyright (c) 2021-2024 Armin Biere University of Freiburg
c Copyright (c) 2019-2021 Armin Biere Johannes Kepler University Linz
c 
c Version 4.0.1 43f02cf3e992cb44653b35e5cb26f93281552ae0
c gcc (Ubuntu 13.2.0-23ubuntu4) 13.2.0 -W -Wall -O3 -DNDEBUG
c Thu Sep 12 12:27:46 CEST 2024 Linux abryzen9 6.8.0-41-generic x86_64
c
c ---- [ parsing ] -----------------------------------------------------------
c
c opened and reading DIMACS file:
c
c   /data/artifact/AMulet2.0_artifact/exp4/cnf_dc2_64/64_64_U_SP_WT_CK_GenMul_dc2.cnf
c
c parsed 'p cnf 30700 134176' header
c closing input after reading 2685550 bytes (3 MB)
c finished parsing after 0.04 seconds
c
c ---- [ options ] -----------------------------------------------------------
c
c --stable=0                       (different from default '1')
c
c ---- [ solving ] -----------------------------------------------------------
c
c  seconds switched rate     size/glue tier1  binary           remaining
c         MB reductions conflicts size  tier2     irredundant
c          level restarts redundant glue  trail           variables
c
c *  0.04 10 0 0 0  0 0   0   0 0.0 0 0 0 0 0% 12590 121584 30697 100%
c (  0.06 13 0 0 0  0 0   0   0 0.0 0 0 0 0 0% 12590 121584 30697 100%
c .  0.07 13 0 0 0  0 0   0   0 0.0 0 0 0 0 0% 12586 121584 30697 100%
c c  0.17 19 0 0 0  0 0   0   0 0.0 0 0 0 0 0% 19470 108008 27253 89%
c d  0.18 19 0 0 0  0 0   0   0 0.0 0 0 0 0 0% 12582 108008 27253 89%
c =  0.24 19 0 0 0  0 0   0   0 0.0 0 0 0 0 0% 12976 108008 26992 88%
c d  0.25 19 0 0 0  0 0   0   0 0.0 0 0 0 0 0% 12454 108008 26992 88%
c f  0.37 19 0 0 0  0 0   0   0 0.0 0 0 0 0 0% 17308 100359 29716 97%
c e  0.56 28 0 0 0  0 0   0   0 0.0 0 0 0 0 0% 11153 108328 20721 67%
c )  0.56 28 0 0 0  0 0   0   0 0.0 0 0 0 0 0% 11153 108328 20721 67%
c {  0.58 28 0 0 0  0 0   0   0 0.0 0 0 2 6 0% 11153 108328 20721 67%
c -  0.75 28 311 0 1 159 42 1000 680 3.8 17 4 2 7 13% 11266 108322 20721 67%
c -  1.11 28 285 0 2 337 48 2000 1346 4.9 27 6 2 9 22% 11328 108322 20721 67%
c c  1.34 25 330 0 2 402 47 2504 1775 4.2 30 7 2 10 22% 11447 107907 20661 67%
c d  1.34 25 330 0 2 402 47 2504 1759 4.2 30 7 2 10 22% 11327 107907 20661 67%
c u  1.36 25 330 0 2 402 47 2504 1543 4.2 30 7 2 10 22% 11333 107907 20661 67%
c v  1.39 25 330 0 2 402 47 2504 1227 4.2 30 7 2 10 22% 11333 107907 20661 67%
c w  1.42 26 330 0 2 402 47 2504 1227 4.2 30 7 2 10 22% 11333 107907 20661 67%
c x  1.44 28 330 0 2 402 47 2504 1227 4.2 30 7 2 10 22% 11428 107709 20661 67%
c =  1.52 28 330 0 2 402 47 2504 1227 4.2 30 7 2 10 22% 11940 107709 20405 66%
c
c  seconds   switched   rate       size/glue tier1     binary           remaining
c         MB  reductions conflicts       size  tier2       irredundant
c           level restarts    redundant    glue    trail           variables
c
c d  1.52 28 330 0 2 402 47 2504 1224 4.2 30 7 2 10 22% 11428 107709 20405 66%
c t  1.54 28 330 0 2 402 47 2504 1224 4.2 30 7 2 10 22% 11422 107709 20405 66%
c f  1.57 28 330 0 2 402 47 2504 1224 4.2 30 7 2 10 22% 11982 106561 20979 68%
c u  1.65 28 330 0 2 402 47 2504 1184 4.2 30 7 2 10 22% 11986 106561 20979 68%
c v  1.67 28 330 0 2 402 47 2504 1145 4.2 30 7 2 10 22% 11986 106561 20979 68%
c w  1.71 28 330 0 2 402 47 2504 1144 4.2 30 7 2 10 22% 11986 106561 20979 68%
c x  1.74 28 330 0 2 402 47 2504 1144 4.2 30 7 2 10 22% 11986 106010 20979 68%
c =  1.83 28 330 0 2 402 47 2504 1144 4.2 30 7 2 10 22% 12296 106010 20824 68%
c d  1.84 28 330 0 2 402 47 2504 1142 4.2 30 7 2 10 22% 11982 106010 20824 68%
c f  1.88 28 330 0 2 402 47 2504 1142 4.2 30 7 2 10 22% 12020 105952 20843 68%
c -  2.19 28 304 0 3 556 45 3414 1634 4.2 32 8 3 11 23% 12052 105952 20843 68%
c -  2.60 28 318 0 4 704 38 5148 2641 4.2 30 7 2 10 23% 12138 105946 20843 68%
c -  2.99 28 346 0 5 903 36 7150 3657 4.1 29 7 2 11 23% 12237 105940 20843 68%
c d  3.15 28 365 0 5 996 37 7709 4110 4.1 29 7 2 11 23% 12172 105940 20801 68%
c u  3.19 28 365 0 5 996 37 7709 3643 4.1 29 7 2 11 23% 12192 105940 20801 68%
c v  3.23 28 365 0 5 996 37 7709 3084 4.1 29 7 2 11 23% 12194 105940 20801 68%
c w  3.28 28 365 0 5 996 37 7709 3084 4.1 29 7 2 11 23% 12194 105940 20801 68%
c x  3.31 28 365 0 5 996 37 7709 3083 4.1 29 7 2 11 23% 12198 105507 20801 68%
c =  3.46 28 365 0 5 996 37 7709 3083 4.1 29 7 2 11 23% 12878 105507 20461 67%
c d  3.47 28 365 0 5 996 37 7709 3077 4.1 29 7 2 11 23% 12116 105507 20456 67%
c
c  seconds   switched   rate       size/glue tier1     binary           remaining
c         MB  reductions conflicts       size  tier2       irredundant
c           level restarts    redundant    glue    trail           variables
c
c t  3.49 28 365 0 5 996 37 7709 3077 4.1 29 7 2 11 23% 12111 105507 20456 67%
c f  3.54 28 365 0 5 996 37 7709 3077 4.1 29 7 2 11 23% 12619 104721 20715 67%
c u  3.64 28 365 0 5 996 37 7709 3005 4.1 29 7 2 11 23% 12619 104721 20715 67%
c v  3.67 28 365 0 5 996 37 7709 2902 4.1 29 7 2 11 23% 12619 104721 20715 67%
c w  3.74 28 365 0 5 996 37 7709 2893 4.1 29 7 2 11 23% 12619 104721 20715 67%
c x  3.77 28 365 0 5 996 37 7709 2893 4.1 29 7 2 11 23% 12619 104713 20715 67%
c =  3.89 28 365 0 5 996 37 7709 2893 4.1 29 7 2 11 23% 13607 104713 20221 66%
c d  3.90 28 365 0 5 996 37 7709 2872 4.1 29 7 2 11 23% 12502 104713 20221 66%
c t  3.92 28 365 0 5 996 37 7709 2872 4.1 29 7 2 11 23% 12435 104713 20221 66%
c f  3.96 28 365 0 5 996 37 7709 2872 4.1 29 7 2 11 23% 14386 101780 21197 69%
c -  4.48 28 381 0 6 1163 39 9386 3762 4.4 31 7 2 11 24% 14455 101767 21197 69%
c o  4.77 28 382 0 6 1237 39 10040 4317 4.5 34 7 2 11 25% 14482 101767 21197 69%
c -  5.22 28 397 0 7 1379 38 11835 5177 4.5 33 7 2 10 25% 14573 101759 21197 69%
c s  5.45 28 387 0 7 1414 37 12515 5783 4.5 33 7 2 10 25% 14591 95126 21197 69%
c e  5.56 28 387 0 7 1414 37 12515 5783 4.5 33 7 2 10 25% 13477 95998 20533 67%
c 2  5.57 28 387 0 7 1414 37 12515 5783 4.5 33 7 2 10 25% 13476 95998 20533 67%
c s  5.57 28 387 0 7 1414 37 12515 5783 4.5 33 7 2 10 25% 13482 95404 20533 67%
c e  5.58 28 387 0 7 1414 37 12515 5783 4.5 33 7 2 10 25% 13473 95412 20530 67%
c ^  5.58 28 387 0 7 1414 37 12515 5783 4.5 33 7 2 10 25% 13473 95412 20530 67%
c -  6.06 28 376 0 8 1543 36 14481 6238 4.4 32 7 2 10 26% 13539 95406 20530 67%
c
c  seconds   switched    rate        size/glue tier1     binary          remaining
c         MB  reductions   conflicts       size  tier2       irredundant
c           level  restarts     redundant    glue    trail          variables
c
c d  6.43 28 366 0 8 1653 35 15794 7355 4.3 31 7 2 10 26% 13224 95393 20314 66%
c u  6.48 28 366 0 8 1653 35 15794 6362 4.3 31 7 2 10 26% 13248 95393 20314 66%
c v  6.53 28 366 0 8 1653 35 15794 5512 4.3 31 7 2 10 26% 13248 95393 20314 66%
c w  6.68 28 366 0 8 1653 35 15794 5481 4.3 31 7 2 10 26% 13248 95393 20314 66%
c =  6.89 28 366 0 8 1653 35 15794 5481 4.3 31 7 2 10 26% 13932 95393 19972 65%
c d  6.90 28 366 0 8 1653 35 15794 5433 4.3 31 7 2 10 26% 13118 95393 19969 65%
c t  6.92 28 366 0 8 1653 35 15794 5433 4.3 31 7 2 10 26% 13037 95393 19969 65%
c f  6.99 28 366 0 8 1653 35 15794 5433 4.3 31 7 2 10 26% 13136 95187 20021 65%
c u  7.04 28 366 0 8 1653 35 15794 5265 4.3 31 7 2 10 26% 13139 95187 20021 65%
c v  7.07 28 366 0 8 1653 35 15794 5175 4.3 31 7 2 10 26% 13139 95187 20021 65%
c w  7.13 28 366 0 8 1653 35 15794 5161 4.3 31 7 2 10 26% 13139 95187 20021 65%
c x  7.16 28 366 0 8 1653 35 15794 5161 4.3 31 7 2 10 26% 13207 94730 20021 65%
c =  7.31 28 366 0 8 1653 35 15794 5161 4.3 31 7 2 10 26% 14319 94730 19465 63%
c d  7.32 28 366 0 8 1653 35 15794 5121 4.3 31 7 2 10 26% 12822 94730 19465 63%
c t  7.33 28 366 0 8 1653 35 15794 5121 4.3 31 7 2 10 26% 12813 94730 19465 63%
c -  7.53 28 359 0 9 1725 34 17311 5718 4.3 30 7 2 10 26% 12855 94726 19465 63%
c o  7.95 28 352 0 9 1911 32 20237 8370 4.1 29 7 2 10 26% 12927 94725 19465 63%
c -  8.01 28 352 0 10 1929 32 20311 7457 4.2 30 7 2 9 27% 12928 94725 19465 63%
c -  8.62 28 336 0 11 2246 32 23474 9045 4.2 32 7 2 9 27% 13007 94721 19465 63%
c s  8.73 28 336 0 11 2283 31 25019 10273 4.2 30 7 2 9 27% 13095 91657 19465 63%
c
c  seconds   switched     rate         size/glue tier1    binary          remaining
c         MB   reductions   conflicts        size  tier2      irredundant
c           level   restarts      redundant    glue   trail          variables
c
c e  8.81 28 336 0 11 2283 31 25019 10273 4.2 30 7 2 9 27% 10654 94980 18071 59%
c s  8.82 28 336 0 11 2283 31 25019 10273 4.2 30 7 2 9 27% 10681 94508 18071 59%
c e  8.82 28 336 0 11 2283 31 25019 10273 4.2 30 7 2 9 27% 10668 94522 18068 59%
c ^  8.82 28 336 0 11 2283 31 25019 10273 4.2 30 7 2 9 27% 10668 94522 18068 59%
c -  9.16 28 336 0 12 2450 31 26791 9632 4.2 31 7 2 9 27% 10722 94521 18068 59%
c c  9.23 28 335 0 12 2473 31 26923 9742 4.2 31 7 2 9 27% 10771 94276 18027 59%
c d  9.24 28 335 0 12 2473 31 26923 9675 4.2 31 7 2 9 27% 10564 94276 17952 58%
c u  9.27 28 335 0 12 2473 31 26923 8387 4.2 31 7 2 9 27% 10586 94276 17952 58%
c v  9.30 28 335 0 12 2473 31 26923 7402 4.2 31 7 2 9 27% 10587 94276 17952 58%
c w  9.31 28 335 0 12 2473 31 26923 7398 4.2 31 7 2 9 27% 10587 94276 17952 58%
c x  9.36 28 335 0 12 2473 31 26923 7398 4.2 31 7 2 9 27% 10695 92652 17952 58%
c =  9.55 28 335 0 12 2473 31 26923 7398 4.2 31 7 2 9 27% 14207 92652 16196 53%
c d  9.55 28 335 0 12 2473 31 26923 7202 4.2 31 7 2 9 27% 10575 92652 16195 53%
c t  9.56 28 335 0 12 2473 31 26923 7202 4.2 31 7 2 9 27% 10498 92652 16195 53%
c f  9.61 28 335 0 12 2473 31 26923 7202 4.2 31 7 2 9 27% 10489 92573 16213 53%
c u  9.65 28 335 0 12 2473 31 26923 6709 4.2 31 7 2 9 27% 10500 92573 16213 53%
c v  9.67 28 335 0 12 2473 31 26923 6574 4.2 31 7 2 9 27% 10500 92573 16213 53%
c w  9.68 28 335 0 12 2473 31 26923 6568 4.2 31 7 2 9 27% 10500 92573 16213 53%
c x  9.74 28 335 0 12 2473 31 26923 6567 4.2 31 7 2 9 27% 10524 85166 16213 53%
c =  9.92 28 335 0 12 2473 31 26923 6567 4.2 31 7 2 9 27% 12706 85160 15122 49%
c
c  seconds   switched     rate        size/glue tier1    binary          remaining
c         MB   reductions   conflicts       size  tier2      irredundant
c           level   restarts     redundant    glue   trail          variables
c
c d  9.93 28 335 0 12 2473 31 26923 6511 4.2 31 7 2 9 27% 10479 85160 15122 49%
c t  9.94 28 335 0 12 2473 31 26923 6511 4.2 31 7 2 9 27% 10374 85160 15122 49%
c f  9.96 28 335 0 12 2473 31 26923 6511 4.2 31 7 2 9 27% 10384 85088 15139 49%
c - 10.44 28 314 0 13 2726 30 30255 8459 4.0 30 8 2 8 27% 10451 85085 15139 49%
c - 10.75 28 305 0 14 2907 28 33862 10380 3.9 29 7 2 8 26% 10516 85079 15139 49%
c - 11.09 28 299 0 15 3103 27 37605 11937 3.8 28 7 2 8 26% 10574 85078 15139 49%
c o 11.37 28 289 0 15 3282 27 40244 14187 3.8 27 7 2 8 26% 10618 85075 15139 49%
c c 11.62 28 287 0 15 3384 27 41253 15120 3.7 27 7 2 8 26% 10661 84854 15094 49%
c d 11.62 28 287 0 15 3384 27 41253 14968 3.7 27 7 2 8 26% 10571 84854 15094 49%
c u 11.70 28 287 0 15 3384 27 41253 12678 3.7 27 7 2 8 26% 10595 84854 15094 49%
c v 11.76 28 287 0 15 3384 27 41253 11838 3.7 27 7 2 8 26% 10599 84854 15094 49%
c w 11.80 28 287 0 15 3384 27 41253 11838 3.7 27 7 2 8 26% 10599 84854 15094 49%
c x 11.88 28 287 0 15 3384 27 41253 11837 3.7 27 7 2 8 26% 10604 78553 15094 49%
c d 12.10 28 287 0 15 3384 27 41253 11829 3.7 27 7 2 8 26% 10596 78553 15090 49%
c t 12.12 28 287 0 15 3384 27 41253 11829 3.7 27 7 2 8 26% 10568 78553 15090 49%
c f 12.13 28 287 0 15 3384 27 41253 11829 3.7 27 7 2 8 26% 10571 78538 15094 49%
c c 12.20 28 287 0 15 3384 27 41253 11809 3.7 27 7 2 8 26% 10590 78478 15086 49%
c d 12.20 28 287 0 15 3384 27 41253 11809 3.7 27 7 2 8 26% 10574 78478 15086 49%
c u 12.26 28 287 0 15 3384 27 41253 11395 3.7 27 7 2 8 26% 10581 78478 15086 49%
c v 12.32 28 287 0 15 3384 27 41253 10614 3.7 27 7 2 8 26% 10587 78478 15086 49%
c
c  seconds   switched     rate         size/glue tier1    binary          remaining
c         MB   reductions   conflicts        size  tier2      irredundant
c           level   restarts      redundant    glue   trail          variables
c
c w 12.39 28 287 0 15 3384 27 41253 10614 3.7 27 7 2 8 26% 10587 78478 15086 49%
c x 12.45 28 287 0 15 3384 27 41253 10612 3.7 27 7 2 8 26% 10588 77133 15086 49%
c d 12.45 28 287 0 15 3384 27 41253 10610 3.7 27 7 2 8 26% 10586 77133 15085 49%
c t 12.47 28 287 0 15 3384 27 41253 10610 3.7 27 7 2 8 26% 10583 77133 15085 49%
c - 12.61 28 286 0 16 3429 27 41477 9488 3.8 28 7 2 7 26% 10585 77133 15085 49%
c - 13.10 28 286 0 17 3636 26 45477 11449 3.7 27 7 2 7 25% 10638 77131 15085 49%
c - 13.46 28 287 0 18 3820 25 49600 13278 3.6 26 7 2 7 25% 10703 77131 15085 49%
c s 13.85 28 283 0 18 4014 25 52121 15497 3.6 26 7 2 7 25% 10747 73571 15085 49%
c e 13.91 28 283 0 18 4014 25 52121 15497 3.6 26 7 2 7 25% 9720 75059 14584 48%
c 2 13.91 28 283 0 18 4014 25 52121 15497 3.6 26 7 2 7 25% 9713 75059 14584 48%
c s 13.92 28 283 0 18 4014 25 52121 15497 3.6 26 7 2 7 25% 9729 74707 14584 48%
c e 13.92 28 283 0 18 4014 25 52121 15497 3.6 26 7 2 7 25% 9688 74746 14566 47%
c ^ 13.92 28 283 0 18 4014 25 52121 15497 3.6 26 7 2 7 25% 9688 74746 14566 47%
c - 14.15 28 277 0 19 4171 25 53843 13760 3.6 26 7 2 7 25% 9699 74745 14566 47%
c - 14.70 28 270 0 20 4580 25 58201 15668 3.6 26 7 2 6 25% 9742 74744 14566 47%
c d 14.71 28 271 0 20 4580 24 58889 16193 3.6 26 7 2 6 25% 9725 74743 14556 47%
c u 14.76 28 271 0 20 4580 24 58889 13939 3.6 26 7 2 6 25% 9756 74743 14556 47%
c v 14.80 28 271 0 20 4580 24 58889 13075 3.6 26 7 2 6 25% 9757 74743 14556 47%
c w 14.81 28 271 0 20 4580 24 58889 13036 3.6 26 7 2 6 25% 9757 74743 14556 47%
c x 14.87 28 271 0 20 4580 24 58889 13029 3.6 26 7 2 6 25% 9783 74068 14556 47%
c
c  seconds   switched     rate         size/glue tier1    binary         remaining
c         MB   reductions   conflicts        size  tier2     irredundant
c           level   restarts      redundant    glue   trail         variables
c
c = 15.04 28 271 0 20 4580 24 58889 13029 3.6 26 7 2 6 25% 9871 74068 14512 47%
c d 15.04 28 271 0 20 4580 24 58889 12855 3.6 26 7 2 6 25% 9768 74068 14508 47%
c t 15.05 28 271 0 20 4580 24 58889 12855 3.6 26 7 2 6 25% 9743 74068 14508 47%
c f 15.07 28 271 0 20 4580 24 58889 12855 3.6 26 7 2 6 25% 9747 74012 14517 47%
c c 15.11 28 271 0 20 4580 24 58889 12808 3.6 26 7 2 6 25% 9795 73840 14495 47%
c d 15.12 28 271 0 20 4580 24 58889 12808 3.6 26 7 2 6 25% 9751 73840 14495 47%
c u 15.16 28 271 0 20 4580 24 58889 12284 3.6 26 7 2 6 25% 9762 73840 14495 47%
c v 15.19 28 271 0 20 4580 24 58889 11610 3.6 26 7 2 6 25% 9764 73840 14495 47%
c w 15.19 28 271 0 20 4580 24 58889 11603 3.6 26 7 2 6 25% 9764 73840 14495 47%
c x 15.27 28 271 0 20 4580 24 58889 11601 3.6 26 7 2 6 25% 9789 73357 14495 47%
c = 15.45 28 271 0 20 4580 24 58889 11601 3.6 26 7 2 6 25% 10343 73357 14218 46%
c d 15.45 28 271 0 20 4580 24 58889 11421 3.6 26 7 2 6 25% 9754 73357 14216 46%
c t 15.46 28 271 0 20 4580 24 58889 11421 3.6 26 7 2 6 25% 9727 73357 14216 46%
c f 15.47 28 271 0 20 4580 24 58889 11421 3.6 26 7 2 6 25% 9730 73340 14218 46%
c - 15.82 28 267 0 21 4814 24 62673 13161 3.5 26 7 2 6 25% 9768 73339 14218 46%
c - 16.25 28 258 0 22 5117 23 67255 15346 3.5 25 7 2 6 24% 9848 73335 14218 46%
c o 16.70 28 251 0 22 5412 23 70290 18127 3.5 25 7 2 6 24% 9875 73334 14218 46%
c - 16.93 28 248 0 23 5573 23 71946 17221 3.5 26 7 2 6 24% 9905 73332 14218 46%
c - 17.51 28 243 0 24 5948 23 76742 18925 3.5 26 7 2 6 24% 9984 73329 14218 46%
c c 18.04 28 239 0 24 6277 23 79966 21812 3.5 26 7 2 6 25% 10120 72497 14065 46%
c
c  seconds   switched     rate         size/glue tier1    binary         remaining
c         MB   reductions   conflicts        size  tier2     irredundant
c           level   restarts      redundant    glue   trail         variables
c
c d 18.04 28 239 0 24 6277 23 79966 21084 3.5 26 7 2 6 25% 9814 72497 14065 46%
c u 18.11 28 239 0 24 6277 23 79966 17699 3.5 26 7 2 6 25% 9838 72497 14065 46%
c v 18.16 28 239 0 24 6277 23 79966 16537 3.5 26 7 2 6 25% 9838 72497 14065 46%
c w 18.20 28 239 0 24 6277 23 79966 16537 3.5 26 7 2 6 25% 9838 72497 14065 46%
c x 18.27 28 239 0 24 6277 23 79966 16535 3.5 26 7 2 6 25% 9848 72005 14065 46%
c = 18.48 28 239 0 24 6277 23 79966 16535 3.5 26 7 2 6 25% 10544 72005 13717 45%
c d 18.48 28 239 0 24 6277 23 79966 15926 3.5 26 7 2 6 25% 9762 72005 13708 45%
c t 18.49 28 239 0 24 6277 23 79966 15926 3.5 26 7 2 6 25% 9701 72005 13708 45%
c f 18.51 28 239 0 24 6277 23 79966 15926 3.5 26 7 2 6 25% 9719 71892 13723 45%
c c 18.54 28 239 0 24 6277 23 79966 15910 3.5 26 7 2 6 25% 9735 71842 13715 45%
c d 18.55 28 239 0 24 6277 23 79966 15910 3.5 26 7 2 6 25% 9719 71842 13715 45%
c u 18.60 28 239 0 24 6277 23 79966 15107 3.5 26 7 2 6 25% 9730 71842 13715 45%
c v 18.65 28 239 0 24 6277 23 79966 14239 3.5 26 7 2 6 25% 9738 71842 13715 45%
c w 18.73 28 239 0 24 6277 23 79966 14238 3.5 26 7 2 6 25% 9738 71842 13715 45%
c x 18.79 28 239 0 24 6277 23 79966 14237 3.5 26 7 2 6 25% 9753 68773 13715 45%
c = 19.08 28 239 0 24 6277 23 79966 14237 3.5 26 7 2 6 25% 10385 68705 13393 44%
c d 19.09 28 239 0 24 6277 23 79966 14022 3.5 26 7 2 6 25% 9703 68705 13393 44%
c t 19.10 28 239 0 24 6277 23 79966 14022 3.5 26 7 2 6 25% 9612 68705 13393 44%
c f 19.11 28 239 0 24 6277 23 79966 14022 3.5 26 7 2 6 25% 9631 68614 13404 44%
c - 19.34 28 237 0 25 6431 23 81640 12313 3.5 26 8 1 6 25% 9628 68610 13404 44%
c
c  seconds   switched     rate         size/glue tier1    binary         remaining
c         MB   reductions   conflicts        size  tier2     irredundant
c           level   restarts      redundant    glue   trail         variables
c
c - 19.97 28 232 0 26 6803 23 86641 14009 3.5 26 8 1 6 25% 9661 68609 13404 44%
c i 20.27 28 228 0 26 6999 23 89826 16802 3.4 26 8 1 6 24% 9708 68607 13403 44%
c i 20.27 28 228 0 26 6999 23 89867 16826 3.4 26 8 1 6 24% 9712 68607 13402 44%
c i 20.38 28 225 0 26 7084 23 91415 18212 3.4 26 8 1 6 24% 9729 68607 13401 44%
c - 20.40 28 224 0 27 7097 22 91740 15550 3.4 26 8 1 6 24% 9721 68607 13401 44%
c i 20.61 28 223 0 27 7244 23 93080 16767 3.4 26 8 1 6 24% 9736 68607 13400 44%
c i 20.88 28 220 0 27 7444 22 95410 18853 3.4 26 8 1 6 24% 9769 68605 13399 44%
c s 20.97 28 220 0 27 7521 23 95813 19247 3.4 26 8 1 6 24% 9772 66782 13397 44%
c e 21.05 28 220 0 27 7521 23 95813 19247 3.4 26 8 1 6 24% 6419 74705 11739 38%
c 2 21.05 28 220 0 27 7521 23 95813 19247 3.4 26 8 1 6 24% 6412 74705 11739 38%
c s 21.06 28 220 0 27 7521 23 95813 19247 3.4 26 8 1 6 24% 6438 74117 11739 38%
c e 21.07 28 220 0 27 7521 23 95813 19247 3.4 26 8 1 6 24% 6395 74265 11697 38%
c ^ 21.07 28 220 0 27 7521 23 95813 19247 3.4 26 8 1 6 24% 6395 74265 11697 38%
c - 21.21 28 218 0 28 7620 22 96937 12281 3.4 26 8 1 6 24% 6419 74262 11697 38%
c i 21.32 28 215 0 28 7708 22 98701 13746 3.4 25 8 1 6 24% 6447 74262 11696 38%
c - 21.88 28 212 0 29 8155 23 102228 14431 3.4 26 8 1 6 24% 6477 74260 11696 38%
c i 22.00 28 212 0 29 8259 23 103422 15434 3.3 26 8 1 6 24% 6494 74259 11695 38%
c i 22.15 28 211 0 29 8360 22 104460 16391 3.3 26 8 1 6 24% 6498 74259 11694 38%
c d 22.18 28 211 0 29 8386 22 104617 16365 3.3 26 8 1 6 24% 6437 74226 11661 38%
c d 22.19 28 211 0 29 8386 22 104617 16363 3.3 26 8 1 6 24% 6433 74226 11659 38%
c
c  seconds   switched     rate          size/glue tier1    binary         remaining
c         MB   reductions   conflicts         size  tier2     irredundant
c           level   restarts       redundant    glue   trail         variables
c
c u 22.22 28 211 0 29 8386 22 104617 14629 3.3 26 8 1 6 24% 6461 74226 11659 38%
c v 22.28 28 211 0 29 8386 22 104617 12279 3.3 26 8 1 6 24% 6472 74226 11659 38%
c w 22.39 28 211 0 29 8386 22 104617 12271 3.3 26 8 1 6 24% 6472 74226 11659 38%
c x 22.48 28 211 0 29 8386 22 104617 12271 3.3 26 8 1 6 24% 6472 74203 11659 38%
c = 22.89 28 211 0 29 8386 22 104617 12271 3.3 26 8 1 6 24% 6798 74036 11478 37%
c d 22.90 28 211 0 29 8386 22 104617 11854 3.3 26 8 1 6 24% 6404 74036 11478 37%
c t 22.91 28 211 0 29 8386 22 104617 11854 3.3 26 8 1 6 24% 6342 74036 11478 37%
c f 22.95 28 211 0 29 8386 22 104617 11854 3.3 26 8 1 6 24% 6366 73860 11493 37%
c c 22.98 28 211 0 29 8386 22 104617 11845 3.3 26 8 1 6 24% 6359 73824 11484 37%
c d 22.99 28 211 0 29 8386 22 104617 11845 3.3 26 8 1 6 24% 6349 73824 11484 37%
c u 23.01 28 211 0 29 8386 22 104617 11370 3.3 26 8 1 6 24% 6351 73824 11484 37%
c v 23.05 28 211 0 29 8386 22 104617 10873 3.3 26 8 1 6 24% 6353 73824 11484 37%
c w 23.17 28 211 0 29 8386 22 104617 10711 3.3 26 8 1 6 24% 6353 73824 11484 37%
c = 23.50 28 211 0 29 8386 22 104617 10711 3.3 26 8 1 6 24% 6534 73627 11371 37%
c d 23.51 28 211 0 29 8386 22 104617 10493 3.3 26 8 1 6 24% 6352 73623 11371 37%
c t 23.52 28 211 0 29 8386 22 104617 10493 3.3 26 8 1 6 24% 6300 73623 11371 37%
c f 23.52 28 211 0 29 8386 22 104617 10493 3.3 26 8 1 6 24% 6302 73611 11372 37%
c i 23.54 28 210 0 29 8393 22 104818 10639 3.3 26 8 1 6 24% 6306 73611 11354 37%
c i 23.54 28 210 0 29 8393 22 104819 10639 3.3 26 8 1 6 24% 6306 73611 11350 37%
c } 23.54 28 210 0 29 8393 22 104822 10639 3.3 26 8 1 6 24% 6307 73611 11348 37%
c
c  seconds   switched     rate          size/glue tier1    binary         remaining
c         MB   reductions   conflicts         size  tier2     irredundant
c           level   restarts       redundant    glue   trail         variables
c
c 0 23.54 28 210 0 29 8393 22 104822 10639 3.3 26 8 1 6 24% 6307 73611 11348 37%
c
c ---- [ result ] ------------------------------------------------------------
c
s UNSATISFIABLE
c
c ---- [ profiling ] ---------------------------------------------------------
c
c          15.16   64.38 %  search
c          15.16   64.38 %  focused
c           7.80   33.13 %  simplify
c           7.62   32.35 %  probe
c           3.02   12.83 %  sweep
c           2.78   11.83 %  vivify
c           0.61    2.58 %  factor
c           0.58    2.45 %  congruence
c           0.50    2.12 %  preprocess
c           0.48    2.06 %  eliminate
c           0.46    1.94 %  substitute
c           0.19    0.80 %  fastel
c           0.14    0.60 %  reduce
c           0.11    0.48 %  transitive
c           0.09    0.39 %  subsume
c           0.06    0.25 %  backbone
c           0.05    0.21 %  lucky
c           0.04    0.15 %  parse
c =============================================
c          23.54  100.00 %  total
c
c ---- [ statistics ] --------------------------------------------------------
c
c chronological:                         4845                5 %  conflicts
c conflicts:                           104822             4452.76 per second
c congruent:                             3786               12 %  variables
c decisions:                          2319505               22.13 per conflict
c eliminated:                           13278               43 %  variables
c factored:                              4696               15 %  variables
c fast_eliminated:                       8995               68 %  eliminated
c fast_strengthened:                       22                2 %  per strengthened
c fast_subsumed:                           92                1 %  per subsumed
c iterations:                              11                0 %  variables
c propagations:                      94833314          4028444    per second
c reductions:                              29             3615    interval
c reordered:                                4            26206    interval
c restarts:                              8393               12    interval
c strengthened:                          1351                0 %  checks
c substituted:                          10681               35 %  variables
c subsumed:                             17051                1 %  checks
c switched:                                 0                0    interval
c vivified:                             60369               13 %  checks
c
c ---- [ glue usage ] --------------------------------------------------------
c
c focused glue 1   used 134064 clauses 52.54% accumulated 52.54% tier1
c focused glue 2   used  56365 clauses 22.09% accumulated 74.63%
c focused glue 3-4 used  30198 clauses 11.84% accumulated 86.47%
c focused glue 5   used   7618 clauses  2.99% accumulated 89.45%
c focused glue 6   used   5488 clauses  2.15% accumulated 91.60% tier2
c
c ---- [ resources ] ---------------------------------------------------------
c
c maximum-resident-set-size:         29614080 bytes         28 MB
c process-time:                            24s              23.54 seconds
c
c ---- [ shutting down ] -----------------------------------------------------
c
c exit 20
